Crypto/instances/samples/hf_n23/hf_n23_cnf12.sol
c DPLL-like Solver for max-min SAT
f file hf_n23_cnf12.cnf
p cnf 23 91
s max  91 6 5 8 -18 7 -22 -23 11 9 -12 -10 -19 -2 1 3 -4 14 -16 -15 -13 -20 -21 -17
s min  74 -6 5 8 18 7 -22 23 -11 -9 12 -10 -19 -2 1 -3 -4 14 -16 15 13 -20 21 -17